p cnf 270 1060
8 7 19 0
33 12 -25 0
-6 -43 28 0
24 -25 48 0
-17 42 -24 0
3 28 -7 0
4 -41 18 0
-6 -41 -34 0
-49 -47 -14 0
-13 47 43 0
-44 -16 39 0
-26 38 42 0
-23 47 30 0
8 -10 26 0
-28 38 3 0
30 -22 -38 0
-25 30 22 0
-9 -42 48 0
-38 -18 -14 0
22 8 -7 0
47 -45 35 0
35 30 -9 0
41 -39 -8 0
-44 -48 -16 0
-10 -4 -21 0
-12 38 -5 0
-17 -47 45 0
-25 26 9 0
-43 -4 34 0
9 -2 35 0
9 -10 -13 0
42 -8 40 0
9 -45 -34 0
6 16 -35 0
4 8 -30 0
8 -29 7 0
32 48 -39 0
35 50 -34 0
4 1 45 0
29 -30 12 0
-33 15 -35 0
21 15 35 0
-24 7 19 0
9 -32 19 0
-38 46 -1 0
-35 -25 -43 0
27 -5 -16 0
45 -12 20 0
45 26 -7 0
-14 -22 -10 0
18 39 14 0
-13 21 40 0
35 -31 42 0
36 -44 23 0
48 26 2 0
45 -8 29 0
24 -11 -15 0
10 35 -19 0
31 10 -5 0
-22 -26 -23 0
-42 -28 -45 0
-43 7 -16 0
-35 11 1 0
2 36 3 0
-23 39 -20 0
41 -48 50 0
49 4 -41 0
-38 23 41 0
40 23 11 0
-45 5 18 0
20 31 -8 0
30 17 -12 0
44 13 -34 0
43 37 6 0
-12 -29 -7 0
12 -35 16 0
17 40 45 0
-37 40 -38 0
-10 1 -19 0
-29 49 -3 0
28 24 -27 0
11 36 -47 0
-38 12 50 0
-48 -41 -10 0
-45 -42 3 0
10 13 -47 0
-8 24 47 0
-41 -23 27 0
-22 -31 -48 0
39 -38 -14 0
7 26 35 0
-7 24 -41 0
13 5 11 0
-43 13 2 0
-1 -30 28 0
-29 9 38 0
-40 4 -3 0
-31 -45 27 0
-16 -7 33 0
22 -24 18 0
-5 -31 28 0
28 -31 33 0
-36 42 -45 0
12 4 13 0
-9 -44 -7 0
49 -12 -37 0
-46 49 40 0
-10 -35 -43 0
-16 50 29 0
-41 -23 29 0
-7 -35 -43 0
-19 -10 -11 0
37 44 9 0
-9 -7 -44 0
28 44 12 0
-38 -19 4 0
18 26 46 0
11 -43 -9 0
15 40 -4 0
42 38 -39 0
-21 13 -5 0
-14 -48 -38 0
-28 -21 25 0
-47 49 13 0
2 -12 -49 0
-38 -17 -2 0
-3 -45 -47 0
6 -24 11 0
16 49 -1 0
-1 20 22 0
3 24 -29 0
42 10 -37 0
26 9 14 0
8 47 -26 0
42 -15 49 0
10 37 -12 0
-12 -8 36 0
-25 47 -23 0
-10 31 -21 0
-44 28 -4 0
-33 -45 19 0
-41 48 -3 0
-12 21 -13 0
27 -38 1 0
-2 5 -41 0
38 -19 -24 0
27 21 -35 0
-16 -31 -1 0
-2 -10 -24 0
46 45 -23 0
-3 4 51 0
3 4 -51 0
-3 -4 -51 0
3 -4 51 0
-5 11 52 0
5 11 -52 0
-5 -11 -52 0
5 -11 52 0
13 16 53 0
-13 16 -53 0
13 -16 -53 0
-13 -16 53 0
-18 -19 54 0
18 -19 -54 0
-18 19 -54 0
18 19 54 0
21 -22 55 0
-21 -22 -55 0
21 22 -55 0
-21 22 55 0
24 -25 56 0
-24 -25 -56 0
24 25 -56 0
-24 25 56 0
-29 30 57 0
29 30 -57 0
-29 -30 -57 0
29 -30 57 0
32 33 58 0
-32 33 -58 0
32 -33 -58 0
-32 -33 58 0
-34 38 59 0
34 38 -59 0
-34 -38 -59 0
34 -38 59 0
-39 40 60 0
39 40 -60 0
-39 -40 -60 0
39 -40 60 0
-41 -44 61 0
41 -44 -61 0
-41 44 -61 0
41 44 61 0
47 -49 62 0
-47 -49 -62 0
47 49 -62 0
-47 49 62 0
51 -52 63 0
-51 -52 -63 0
51 52 -63 0
-51 52 63 0
53 -54 64 0
-53 -54 -64 0
53 54 -64 0
-53 54 64 0
55 -56 65 0
-55 -56 -65 0
55 56 -65 0
-55 56 65 0
57 -58 66 0
-57 -58 -66 0
57 58 -66 0
-57 58 66 0
59 -60 67 0
-59 -60 -67 0
59 60 -67 0
-59 60 67 0
61 -62 68 0
-61 -62 -68 0
61 62 -68 0
-61 62 68 0
63 -64 69 0
-63 -64 -69 0
63 64 -69 0
-63 64 69 0
65 -66 70 0
-65 -66 -70 0
65 66 -70 0
-65 66 70 0
67 -68 71 0
-67 -68 -71 0
67 68 -71 0
-67 68 71 0
-69 -70 71 0
69 -70 -71 0
-69 70 -71 0
69 70 71 0
-1 2 72 0
1 2 -72 0
-1 -2 -72 0
1 -2 72 0
3 7 73 0
-3 7 -73 0
3 -7 -73 0
-3 -7 73 0
-8 9 74 0
8 9 -74 0
-8 -9 -74 0
8 -9 74 0
10 11 75 0
-10 11 -75 0
10 -11 -75 0
-10 -11 75 0
12 13 76 0
-12 13 -76 0
12 -13 -76 0
-12 -13 76 0
-21 -22 77 0
21 -22 -77 0
-21 22 -77 0
21 22 77 0
-23 -26 78 0
23 -26 -78 0
-23 26 -78 0
23 26 78 0
27 28 79 0
-27 28 -79 0
27 -28 -79 0
-27 -28 79 0
29 30 80 0
-29 30 -80 0
29 -30 -80 0
-29 -30 80 0
-31 -32 81 0
31 -32 -81 0
-31 32 -81 0
31 32 81 0
33 -34 82 0
-33 -34 -82 0
33 34 -82 0
-33 34 82 0
-37 -38 83 0
37 -38 -83 0
-37 38 -83 0
37 38 83 0
-40 42 84 0
40 42 -84 0
-40 -42 -84 0
40 -42 84 0
45 47 85 0
-45 47 -85 0
45 -47 -85 0
-45 -47 85 0
-48 -49 86 0
48 -49 -86 0
-48 49 -86 0
48 49 86 0
72 -73 87 0
-72 -73 -87 0
72 73 -87 0
-72 73 87 0
74 -75 88 0
-74 -75 -88 0
74 75 -88 0
-74 75 88 0
76 -77 89 0
-76 -77 -89 0
76 77 -89 0
-76 77 89 0
78 -79 90 0
-78 -79 -90 0
78 79 -90 0
-78 79 90 0
80 -81 91 0
-80 -81 -91 0
80 81 -91 0
-80 81 91 0
82 -83 92 0
-82 -83 -92 0
82 83 -92 0
-82 83 92 0
84 -85 93 0
-84 -85 -93 0
84 85 -93 0
-84 85 93 0
86 -87 94 0
-86 -87 -94 0
86 87 -94 0
-86 87 94 0
88 -89 95 0
-88 -89 -95 0
88 89 -95 0
-88 89 95 0
90 -91 96 0
-90 -91 -96 0
90 91 -96 0
-90 91 96 0
92 -93 97 0
-92 -93 -97 0
92 93 -97 0
-92 93 97 0
94 -95 98 0
-94 -95 -98 0
94 95 -98 0
-94 95 98 0
96 -97 99 0
-96 -97 -99 0
96 97 -99 0
-96 97 99 0
98 99 0
-98 -99 0
3 5 100 0
-3 5 -100 0
3 -5 -100 0
-3 -5 100 0
-7 -9 101 0
7 -9 -101 0
-7 9 -101 0
7 9 101 0
-13 -14 102 0
13 -14 -102 0
-13 14 -102 0
13 14 102 0
-17 18 103 0
17 18 -103 0
-17 -18 -103 0
17 -18 103 0
21 -22 104 0
-21 -22 -104 0
21 22 -104 0
-21 22 104 0
-23 26 105 0
23 26 -105 0
-23 -26 -105 0
23 -26 105 0
28 29 106 0
-28 29 -106 0
28 -29 -106 0
-28 -29 106 0
31 32 107 0
-31 32 -107 0
31 -32 -107 0
-31 -32 107 0
-34 35 108 0
34 35 -108 0
-34 -35 -108 0
34 -35 108 0
-38 39 109 0
38 39 -109 0
-38 -39 -109 0
38 -39 109 0
-42 -47 110 0
42 -47 -110 0
-42 47 -110 0
42 47 110 0
48 49 111 0
-48 49 -111 0
48 -49 -111 0
-48 -49 111 0
100 -101 112 0
-100 -101 -112 0
100 101 -112 0
-100 101 112 0
102 -103 113 0
-102 -103 -113 0
102 103 -113 0
-102 103 113 0
104 -105 114 0
-104 -105 -114 0
104 105 -114 0
-104 105 114 0
106 -107 115 0
-106 -107 -115 0
106 107 -115 0
-106 107 115 0
108 -109 116 0
-108 -109 -116 0
108 109 -116 0
-108 109 116 0
110 -111 117 0
-110 -111 -117 0
110 111 -117 0
-110 111 117 0
112 -113 118 0
-112 -113 -118 0
112 113 -118 0
-112 113 118 0
114 -115 119 0
-114 -115 -119 0
114 115 -119 0
-114 115 119 0
116 -117 120 0
-116 -117 -120 0
116 117 -120 0
-116 117 120 0
-118 -119 120 0
118 -119 -120 0
-118 119 -120 0
118 119 120 0
-2 -3 121 0
2 -3 -121 0
-2 3 -121 0
2 3 121 0
-4 -5 122 0
4 -5 -122 0
-4 5 -122 0
4 5 122 0
7 -9 123 0
-7 -9 -123 0
7 9 -123 0
-7 9 123 0
12 14 124 0
-12 14 -124 0
12 -14 -124 0
-12 -14 124 0
-17 18 125 0
17 18 -125 0
-17 -18 -125 0
17 -18 125 0
24 -25 126 0
-24 -25 -126 0
24 25 -126 0
-24 25 126 0
-29 31 127 0
29 31 -127 0
-29 -31 -127 0
29 -31 127 0
33 36 128 0
-33 36 -128 0
33 -36 -128 0
-33 -36 128 0
37 40 129 0
-37 40 -129 0
37 -40 -129 0
-37 -40 129 0
43 -44 130 0
-43 -44 -130 0
43 44 -130 0
-43 44 130 0
120 -121 131 0
-120 -121 -131 0
120 121 -131 0
-120 121 131 0
122 -123 132 0
-122 -123 -132 0
122 123 -132 0
-122 123 132 0
124 -125 133 0
-124 -125 -133 0
124 125 -133 0
-124 125 133 0
126 -127 134 0
-126 -127 -134 0
126 127 -134 0
-126 127 134 0
128 -129 135 0
-128 -129 -135 0
128 129 -135 0
-128 129 135 0
130 -131 136 0
-130 -131 -136 0
130 131 -136 0
-130 131 136 0
132 -133 137 0
-132 -133 -137 0
132 133 -137 0
-132 133 137 0
134 -135 138 0
-134 -135 -138 0
134 135 -138 0
-134 135 138 0
-136 -137 138 0
136 -137 -138 0
-136 137 -138 0
136 137 138 0
4 -5 139 0
-4 -5 -139 0
4 5 -139 0
-4 5 139 0
-6 7 140 0
6 7 -140 0
-6 -7 -140 0
6 -7 140 0
9 11 141 0
-9 11 -141 0
9 -11 -141 0
-9 -11 141 0
12 17 142 0
-12 17 -142 0
12 -17 -142 0
-12 -17 142 0
-18 21 143 0
18 21 -143 0
-18 -21 -143 0
18 -21 143 0
22 24 144 0
-22 24 -144 0
22 -24 -144 0
-22 -24 144 0
-31 -32 145 0
31 -32 -145 0
-31 32 -145 0
31 32 145 0
33 34 146 0
-33 34 -146 0
33 -34 -146 0
-33 -34 146 0
35 -36 147 0
-35 -36 -147 0
35 36 -147 0
-35 36 147 0
37 -38 148 0
-37 -38 -148 0
37 38 -148 0
-37 38 148 0
39 41 149 0
-39 41 -149 0
39 -41 -149 0
-39 -41 149 0
-42 46 150 0
42 46 -150 0
-42 -46 -150 0
42 -46 150 0
-47 -50 151 0
47 -50 -151 0
-47 50 -151 0
47 50 151 0
139 -140 152 0
-139 -140 -152 0
139 140 -152 0
-139 140 152 0
141 -142 153 0
-141 -142 -153 0
141 142 -153 0
-141 142 153 0
143 -144 154 0
-143 -144 -154 0
143 144 -154 0
-143 144 154 0
145 -146 155 0
-145 -146 -155 0
145 146 -155 0
-145 146 155 0
147 -148 156 0
-147 -148 -156 0
147 148 -156 0
-147 148 156 0
149 -150 157 0
-149 -150 -157 0
149 150 -157 0
-149 150 157 0
151 -152 158 0
-151 -152 -158 0
151 152 -158 0
-151 152 158 0
153 -154 159 0
-153 -154 -159 0
153 154 -159 0
-153 154 159 0
155 -156 160 0
-155 -156 -160 0
155 156 -160 0
-155 156 160 0
157 -158 161 0
-157 -158 -161 0
157 158 -161 0
-157 158 161 0
159 -160 162 0
-159 -160 -162 0
159 160 -162 0
-159 160 162 0
161 162 0
-161 -162 0
-1 3 163 0
1 3 -163 0
-1 -3 -163 0
1 -3 163 0
4 7 164 0
-4 7 -164 0
4 -7 -164 0
-4 -7 164 0
8 10 165 0
-8 10 -165 0
8 -10 -165 0
-8 -10 165 0
13 -14 166 0
-13 -14 -166 0
13 14 -166 0
-13 14 166 0
-17 -18 167 0
17 -18 -167 0
-17 18 -167 0
17 18 167 0
19 -20 168 0
-19 -20 -168 0
19 20 -168 0
-19 20 168 0
21 -22 169 0
-21 -22 -169 0
21 22 -169 0
-21 22 169 0
23 -27 170 0
-23 -27 -170 0
23 27 -170 0
-23 27 170 0
-31 32 171 0
31 32 -171 0
-31 -32 -171 0
31 -32 171 0
34 -35 172 0
-34 -35 -172 0
34 35 -172 0
-34 35 172 0
-36 38 173 0
36 38 -173 0
-36 -38 -173 0
36 -38 173 0
-41 42 174 0
41 42 -174 0
-41 -42 -174 0
41 -42 174 0
-44 50 175 0
44 50 -175 0
-44 -50 -175 0
44 -50 175 0
163 -164 176 0
-163 -164 -176 0
163 164 -176 0
-163 164 176 0
165 -166 177 0
-165 -166 -177 0
165 166 -177 0
-165 166 177 0
167 -168 178 0
-167 -168 -178 0
167 168 -178 0
-167 168 178 0
169 -170 179 0
-169 -170 -179 0
169 170 -179 0
-169 170 179 0
171 -172 180 0
-171 -172 -180 0
171 172 -180 0
-171 172 180 0
173 -174 181 0
-173 -174 -181 0
173 174 -181 0
-173 174 181 0
175 -176 182 0
-175 -176 -182 0
175 176 -182 0
-175 176 182 0
177 -178 183 0
-177 -178 -183 0
177 178 -183 0
-177 178 183 0
179 -180 184 0
-179 -180 -184 0
179 180 -184 0
-179 180 184 0
181 -182 185 0
-181 -182 -185 0
181 182 -185 0
-181 182 185 0
183 -184 186 0
-183 -184 -186 0
183 184 -186 0
-183 184 186 0
185 186 0
-185 -186 0
2 3 187 0
-2 3 -187 0
2 -3 -187 0
-2 -3 187 0
6 -7 188 0
-6 -7 -188 0
6 7 -188 0
-6 7 188 0
-9 11 189 0
9 11 -189 0
-9 -11 -189 0
9 -11 189 0
-13 14 190 0
13 14 -190 0
-13 -14 -190 0
13 -14 190 0
-15 16 191 0
15 16 -191 0
-15 -16 -191 0
15 -16 191 0
18 21 192 0
-18 21 -192 0
18 -21 -192 0
-18 -21 192 0
-22 -23 193 0
22 -23 -193 0
-22 23 -193 0
22 23 193 0
-27 -28 194 0
27 -28 -194 0
-27 28 -194 0
27 28 194 0
33 -34 195 0
-33 -34 -195 0
33 34 -195 0
-33 34 195 0
-36 37 196 0
36 37 -196 0
-36 -37 -196 0
36 -37 196 0
-41 45 197 0
41 45 -197 0
-41 -45 -197 0
41 -45 197 0
46 -47 198 0
-46 -47 -198 0
46 47 -198 0
-46 47 198 0
186 -187 199 0
-186 -187 -199 0
186 187 -199 0
-186 187 199 0
188 -189 200 0
-188 -189 -200 0
188 189 -200 0
-188 189 200 0
190 -191 201 0
-190 -191 -201 0
190 191 -201 0
-190 191 201 0
192 -193 202 0
-192 -193 -202 0
192 193 -202 0
-192 193 202 0
194 -195 203 0
-194 -195 -203 0
194 195 -203 0
-194 195 203 0
196 -197 204 0
-196 -197 -204 0
196 197 -204 0
-196 197 204 0
198 -199 205 0
-198 -199 -205 0
198 199 -205 0
-198 199 205 0
200 -201 206 0
-200 -201 -206 0
200 201 -206 0
-200 201 206 0
202 -203 207 0
-202 -203 -207 0
202 203 -207 0
-202 203 207 0
204 -205 208 0
-204 -205 -208 0
204 205 -208 0
-204 205 208 0
206 -207 209 0
-206 -207 -209 0
206 207 -209 0
-206 207 209 0
208 209 0
-208 -209 0
-2 -6 210 0
2 -6 -210 0
-2 6 -210 0
2 6 210 0
9 18 211 0
-9 18 -211 0
9 -18 -211 0
-9 -18 211 0
-21 22 212 0
21 22 -212 0
-21 -22 -212 0
21 -22 212 0
23 24 213 0
-23 24 -213 0
23 -24 -213 0
-23 -24 213 0
25 -26 214 0
-25 -26 -214 0
25 26 -214 0
-25 26 214 0
-27 -31 215 0
27 -31 -215 0
-27 31 -215 0
27 31 215 0
-32 33 216 0
32 33 -216 0
-32 -33 -216 0
32 -33 216 0
-35 39 217 0
35 39 -217 0
-35 -39 -217 0
35 -39 217 0
40 -43 218 0
-40 -43 -218 0
40 43 -218 0
-40 43 218 0
45 46 219 0
-45 46 -219 0
45 -46 -219 0
-45 -46 219 0
210 -211 220 0
-210 -211 -220 0
210 211 -220 0
-210 211 220 0
212 -213 221 0
-212 -213 -221 0
212 213 -221 0
-212 213 221 0
214 -215 222 0
-214 -215 -222 0
214 215 -222 0
-214 215 222 0
216 -217 223 0
-216 -217 -223 0
216 217 -223 0
-216 217 223 0
218 -219 224 0
-218 -219 -224 0
218 219 -224 0
-218 219 224 0
220 -221 225 0
-220 -221 -225 0
220 221 -225 0
-220 221 225 0
222 -223 226 0
-222 -223 -226 0
222 223 -226 0
-222 223 226 0
-224 -225 226 0
224 -225 -226 0
-224 225 -226 0
224 225 226 0
1 -2 227 0
-1 -2 -227 0
1 2 -227 0
-1 2 227 0
-3 -5 228 0
3 -5 -228 0
-3 5 -228 0
3 5 228 0
7 9 229 0
-7 9 -229 0
7 -9 -229 0
-7 -9 229 0
11 -15 230 0
-11 -15 -230 0
11 15 -230 0
-11 15 230 0
18 21 231 0
-18 21 -231 0
18 -21 -231 0
-18 -21 231 0
-22 23 232 0
22 23 -232 0
-22 -23 -232 0
22 -23 232 0
24 -25 233 0
-24 -25 -233 0
24 25 -233 0
-24 25 233 0
28 29 234 0
-28 29 -234 0
28 -29 -234 0
-28 -29 234 0
-36 37 235 0
36 37 -235 0
-36 -37 -235 0
36 -37 235 0
-38 -40 236 0
38 -40 -236 0
-38 40 -236 0
38 40 236 0
44 45 237 0
-44 45 -237 0
44 -45 -237 0
-44 -45 237 0
-46 48 238 0
46 48 -238 0
-46 -48 -238 0
46 -48 238 0
-49 -50 239 0
49 -50 -239 0
-49 50 -239 0
49 50 239 0
227 -228 240 0
-227 -228 -240 0
227 228 -240 0
-227 228 240 0
229 -230 241 0
-229 -230 -241 0
229 230 -241 0
-229 230 241 0
231 -232 242 0
-231 -232 -242 0
231 232 -242 0
-231 232 242 0
233 -234 243 0
-233 -234 -243 0
233 234 -243 0
-233 234 243 0
235 -236 244 0
-235 -236 -244 0
235 236 -244 0
-235 236 244 0
237 -238 245 0
-237 -238 -245 0
237 238 -245 0
-237 238 245 0
239 -240 246 0
-239 -240 -246 0
239 240 -246 0
-239 240 246 0
241 -242 247 0
-241 -242 -247 0
241 242 -247 0
-241 242 247 0
243 -244 248 0
-243 -244 -248 0
243 244 -248 0
-243 244 248 0
245 -246 249 0
-245 -246 -249 0
245 246 -249 0
-245 246 249 0
247 -248 250 0
-247 -248 -250 0
247 248 -250 0
-247 248 250 0
249 250 0
-249 -250 0
-5 6 251 0
5 6 -251 0
-5 -6 -251 0
5 -6 251 0
9 12 252 0
-9 12 -252 0
9 -12 -252 0
-9 -12 252 0
16 -18 253 0
-16 -18 -253 0
16 18 -253 0
-16 18 253 0
-19 20 254 0
19 20 -254 0
-19 -20 -254 0
19 -20 254 0
-23 25 255 0
23 25 -255 0
-23 -25 -255 0
23 -25 255 0
28 30 256 0
-28 30 -256 0
28 -30 -256 0
-28 -30 256 0
-33 34 257 0
33 34 -257 0
-33 -34 -257 0
33 -34 257 0
37 38 258 0
-37 38 -258 0
37 -38 -258 0
-37 -38 258 0
-39 40 259 0
39 40 -259 0
-39 -40 -259 0
39 -40 259 0
-41 43 260 0
41 43 -260 0
-41 -43 -260 0
41 -43 260 0
47 48 261 0
-47 48 -261 0
47 -48 -261 0
-47 -48 261 0
250 -251 262 0
-250 -251 -262 0
250 251 -262 0
-250 251 262 0
252 -253 263 0
-252 -253 -263 0
252 253 -263 0
-252 253 263 0
254 -255 264 0
-254 -255 -264 0
254 255 -264 0
-254 255 264 0
256 -257 265 0
-256 -257 -265 0
256 257 -265 0
-256 257 265 0
258 -259 266 0
-258 -259 -266 0
258 259 -266 0
-258 259 266 0
260 -261 267 0
-260 -261 -267 0
260 261 -267 0
-260 261 267 0
262 -263 268 0
-262 -263 -268 0
262 263 -268 0
-262 263 268 0
264 -265 269 0
-264 -265 -269 0
264 265 -269 0
-264 265 269 0
266 -267 270 0
-266 -267 -270 0
266 267 -270 0
-266 267 270 0
-268 -269 270 0
268 -269 -270 0
-268 269 -270 0
268 269 270 0
